c colouring generated by benchmark framework
p edge 196 4186
v 1 11
v 2 5
v 3 16
v 4 13
v 5 15
v 6 14
v 7 8
v 8 17
v 9 4
v 10 9
v 11 6
v 12 7
v 13 10
v 14 2
v 15 3
v 16 4
v 17 12
v 18 7
v 19 11
v 20 1
v 21 6
v 22 18
v 23 2
v 24 5
v 25 0
v 26 8
v 27 13
v 28 15
v 29 12
v 30 10
v 31 0
v 32 3
v 33 13
v 34 5
v 35 7
v 36 4
v 37 1
v 38 8
v 39 2
v 40 6
v 41 9
v 42 11
v 43 1
v 44 18
v 45 8
v 46 21
v 47 2
v 48 10
v 49 20
v 50 0
v 51 13
v 52 4
v 53 19
v 54 11
v 55 16
v 56 5
v 57 8
v 58 6
v 59 4
v 60 15
v 61 16
v 62 0
v 63 19
v 64 2
v 65 17
v 66 7
v 67 5
v 68 1
v 69 3
v 70 12
v 71 13
v 72 2
v 73 9
v 74 17
v 75 5
v 76 7
v 77 11
v 78 20
v 79 16
v 80 3
v 81 18
v 82 0
v 83 14
v 84 1
v 85 14
v 86 7
v 87 5
v 88 11
v 89 9
v 90 20
v 91 3
v 92 10
v 93 12
v 94 0
v 95 4
v 96 2
v 97 15
v 98 16
v 99 4
v 100 0
v 101 6
v 102 12
v 103 17
v 104 16
v 105 14
v 106 1
v 107 15
v 108 2
v 109 7
v 110 9
v 111 5
v 112 3
v 113 6
v 114 17
v 115 2
v 116 5
v 117 14
v 118 4
v 119 0
v 120 21
v 121 9
v 122 1
v 123 3
v 124 10
v 125 12
v 126 8
v 127 16
v 128 11
v 129 3
v 130 1
v 131 18
v 132 13
v 133 2
v 134 7
v 135 0
v 136 20
v 137 8
v 138 4
v 139 6
v 140 10
v 141 17
v 142 9
v 143 7
v 144 0
v 145 4
v 146 3
v 147 1
v 148 13
v 149 8
v 150 6
v 151 15
v 152 19
v 153 11
v 154 14
v 155 10
v 156 12
v 157 1
v 158 2
v 159 19
v 160 6
v 161 4
v 162 16
v 163 3
v 164 11
v 165 9
v 166 5
v 167 7
v 168 0
v 169 0
v 170 3
v 171 10
v 172 14
v 173 8
v 174 9
v 175 5
v 176 15
v 177 6
v 178 18
v 179 1
v 180 12
v 181 2
v 182 4
v 183 9
v 184 14
v 185 17
v 186 16
v 187 6
v 188 12
v 189 18
v 190 8
v 191 11
v 192 21
v 193 10
v 194 3
v 195 1
v 196 13
